# Solution for model GasLib-40
# Objective value = 1.0825240212799757e+01
loadshed[innode_1] 0
loadshed[innode_2] 0
loadshed[innode_3] 0
loadshed[innode_4] 0
loadshed[innode_5] 0
loadshed[innode_6] 0
loadshed[innode_7] 0
loadshed[innode_8] 0
loadshed[source_1] -2.9135673965626285e-01
loadshed[source_2] 5.9755650825255580e-02
loadshed[source_3] 3.0007614223042356e-01
loadshed[sink_1] 0
loadshed[sink_2] 0
loadshed[sink_3] 0
loadshed[sink_4] 0
loadshed[sink_5] 0
loadshed[sink_6] 0
loadshed[sink_7] 0
loadshed[sink_8] 0
loadshed[sink_9] 0
loadshed[sink_10] 0
loadshed[sink_11] 0
loadshed[sink_12] 6.6192551619667306e-01
loadshed[sink_13] 0
loadshed[sink_14] 0
loadshed[sink_15] 0
loadshed[sink_16] 0
loadshed[sink_17] 0
loadshed[sink_18] 0
loadshed[sink_19] 0
loadshed[sink_20] 0
loadshed[sink_21] 0
loadshed[sink_22] 0
loadshed[sink_23] 0
loadshed[sink_24] 0
loadshed[sink_25] 0
loadshed[sink_26] 0
loadshed[sink_27] 0
loadshed[sink_28] 0
loadshed[sink_29] 0
flow[source_1,sink_3] 2.0415094568246406e+02
flow[innode_1,sink_16] 1.6354166666666970e+01
flow[innode_6,sink_13] 3.8280095685939415e+00
flow[sink_13,sink_14] -1.2526157098072726e+01
flow[sink_14,sink_10] -2.8880323764739394e+01
flow[sink_25,sink_26] 1.7616086396922083e+02
flow[sink_26,sink_9] 1.2380612357961431e+02
flow[sink_9,sink_18] 1.0745195691294764e+02
flow[sink_26,sink_4] 3.6000573722939876e+01
flow[sink_4,sink_20] -4.1972229151314536e+01
flow[sink_18,sink_6] 9.1097790246280965e+01
flow[sink_25,innode_8] -1.7144261234912770e+02
flow[sink_6,sink_7] 4.2035290246280510e+01
flow[sink_6,sink_22] 3.2708333333333641e+01
flow[sink_7,sink_24] 3.8237259787200244e+01
flow[sink_22,sink_1] 1.6354166666666970e+01
flow[sink_24,sink_21] 2.1883093120533577e+01
flow[sink_21,sink_12] 5.5289264538669087e+00
flow[sink_7,sink_5] -1.2556136207586420e+01
flow[sink_5,sink_17] -2.8910302874253148e+01
flow[sink_17,sink_4] -6.1618636207588224e+01
flow[sink_17,sink_8] 1.6354166666668334e+01
flow[sink_3,sink_23] 16.3541666666697
flow[sink_8,sink_20] 0
flow[sink_25,sink_20] 5.8326395817981421e+01
flow[sink_25,sink_15] -8.3226823673335574e+01
flow[sink_15,sink_29] -9.9580990340002245e+01
flow[sink_29,sink_28] 1.6354166666667879e+01
flow[sink_29,sink_2] 1.6354166666684250e+01
flow[sink_2,sink_15] 0
flow[sink_29,innode_7] -1.4864349034002123e+02
flow[innode_4,sink_19] 9.4296990431406456e+01
flow[sink_19,innode_3] 3.8035769000712726e+01
flow[innode_4,innode_5] 1.6354166666679703e+01
flow[sink_27,innode_5] -1.6354166666679703e+01
flow[sink_27,sink_19] 0
flow[sink_10,sink_11] 3.2708333333333641e+01
flow[sink_10,innode_2] -3.9907054764026974e+01
flow[sink_10,innode_3] -3.8035769000712726e+01
flow[innode_6,sink_25] -3.8280095685939415e+00
flow[sink_11,innode_1] 1.6354166666666970e+01
flow[sink_19,innode_2] 3.9907054764026974e+01
flow[source_3,innode_4] 1.1065115709808616e+02
flow[source_2,innode_7] 1.4864349034002123e+02
flow[sink_3,innode_8] 1.7144261234912770e+02
pressure[innode_1] 7.4932084674106036e+01
pressure[innode_2] 7.7193038647522684e+01
pressure[innode_3] 77.1088127441542
pressure[innode_4] 81.01325
pressure[innode_5] 8.1002000741808772e+01
pressure[innode_6] 7.3716473771740652e+01
pressure[innode_7] 81.01325
pressure[innode_8] 8.0330851377071539e+01
pressure[source_1] 81.01325
pressure[source_2] 81.01325
pressure[source_3] 81.01325
pressure[sink_1] 4.5477859638127626e+01
pressure[sink_2] 7.6623349445145166e+01
pressure[sink_3] 8.0330851377071539e+01
pressure[sink_4] 5.6732361459147931e+01
pressure[sink_5] 5.2223891770005586e+01
pressure[sink_6] 47.578937248515
pressure[sink_7] 4.7001892910400571e+01
pressure[sink_8] 5.3760415169052578e+01
pressure[sink_9] 5.3899451544877806e+01
pressure[sink_10] 7.5083785981709582e+01
pressure[sink_11] 7.4932084674106036e+01
pressure[sink_12] 1.0132500000000002e+00
pressure[sink_13] 7.3695370594708820e+01
pressure[sink_14] 7.3717787219828480e+01
pressure[sink_15] 7.4120204964590542e+01
pressure[sink_16] 7.3910434839288357e+01
pressure[sink_17] 54.3775003644662
pressure[sink_18] 5.0011519481856880e+01
pressure[sink_19] 7.7193038647522684e+01
pressure[sink_20] 59.8116393499026
pressure[sink_21] 2.9807446316093564e+00
pressure[sink_22] 4.6541628780482633e+01
pressure[sink_23] 8.0166133365411753e+01
pressure[sink_24] 3.2230795561009367e+00
pressure[sink_25] 7.3716473771740652e+01
pressure[sink_26] 6.1309567575926735e+01
pressure[sink_27] 8.0866291377726043e+01
pressure[sink_28] 7.6742336669991644e+01
pressure[sink_29] 7.7037618943608820e+01
interdiction[source_1,sink_3] 0
interdiction[innode_1,sink_16] 0
interdiction[innode_6,sink_13] 0
interdiction[sink_13,sink_14] 0
interdiction[sink_14,sink_10] 0
interdiction[sink_25,sink_26] 0
interdiction[sink_26,sink_9] 0
interdiction[sink_9,sink_18] 0
interdiction[sink_26,sink_4] 0
interdiction[sink_4,sink_20] 0
interdiction[sink_18,sink_6] 0
interdiction[sink_25,innode_8] 0
interdiction[sink_6,sink_7] 0
interdiction[sink_6,sink_22] 0
interdiction[sink_7,sink_24] 0
interdiction[sink_22,sink_1] 0
interdiction[sink_24,sink_21] 0
interdiction[sink_21,sink_12] 0
interdiction[sink_7,sink_5] 0
interdiction[sink_5,sink_17] 0
interdiction[sink_17,sink_4] 0
interdiction[sink_17,sink_8] 0
interdiction[sink_3,sink_23] 0
interdiction[sink_8,sink_20] 1
interdiction[sink_25,sink_20] 0
interdiction[sink_25,sink_15] 0
interdiction[sink_15,sink_29] 0
interdiction[sink_29,sink_28] 0
interdiction[sink_29,sink_2] 0
interdiction[sink_2,sink_15] 1
interdiction[sink_29,innode_7] 0
interdiction[innode_4,sink_19] 0
interdiction[sink_19,innode_3] 0
interdiction[innode_4,innode_5] 0
interdiction[sink_27,innode_5] 0
interdiction[sink_27,sink_19] 1
interdiction[sink_10,sink_11] 0
interdiction[sink_10,innode_2] 0
interdiction[sink_10,innode_3] 0
interdiction[innode_6,sink_25] 0
interdiction[sink_11,innode_1] 0
interdiction[sink_19,innode_2] 0
interdiction[source_3,innode_4] 0
interdiction[source_2,innode_7] 0
interdiction[sink_3,innode_8] 0
WCcheckFlow[source_1,sink_3] 39
WCcheckFlow[innode_1,sink_16] 1
WCcheckFlow[innode_6,sink_13] 13
WCcheckFlow[sink_13,sink_14] 12
WCcheckFlow[sink_14,sink_10] 11
WCcheckFlow[sink_25,sink_26] 15
WCcheckFlow[sink_26,sink_9] 12
WCcheckFlow[sink_9,sink_18] 11
WCcheckFlow[sink_26,sink_4] 2
WCcheckFlow[sink_4,sink_20] 1
WCcheckFlow[sink_18,sink_6] 10
WCcheckFlow[sink_25,innode_8] -36
WCcheckFlow[sink_6,sink_7] 7
WCcheckFlow[sink_6,sink_22] 2
WCcheckFlow[sink_7,sink_24] 3
WCcheckFlow[sink_22,sink_1] 1
WCcheckFlow[sink_24,sink_21] 2
WCcheckFlow[sink_21,sink_12] 1
WCcheckFlow[sink_7,sink_5] 3
WCcheckFlow[sink_5,sink_17] 2
WCcheckFlow[sink_17,sink_4] 0
WCcheckFlow[sink_17,sink_8] 1
WCcheckFlow[sink_3,sink_23] 1
WCcheckFlow[sink_8,sink_20] 0
WCcheckFlow[sink_25,sink_20] 0
WCcheckFlow[sink_25,sink_15] 6
WCcheckFlow[sink_15,sink_29] 5
WCcheckFlow[sink_29,sink_28] 1
WCcheckFlow[sink_29,sink_2] 1
WCcheckFlow[sink_2,sink_15] 0
WCcheckFlow[sink_29,innode_7] 2
WCcheckFlow[innode_4,sink_19] -4
WCcheckFlow[sink_19,innode_3] -5
WCcheckFlow[innode_4,innode_5] 2
WCcheckFlow[sink_27,innode_5] -1
WCcheckFlow[sink_27,sink_19] 0
WCcheckFlow[sink_10,sink_11] 3
WCcheckFlow[sink_10,innode_2] 1
WCcheckFlow[sink_10,innode_3] 6
WCcheckFlow[innode_6,sink_25] -14
WCcheckFlow[sink_11,innode_1] 2
WCcheckFlow[sink_19,innode_2] 0
WCcheckFlow[source_3,innode_4] -1
WCcheckFlow[source_2,innode_7] -1
WCcheckFlow[sink_3,innode_8] 37
